* #variable= 144 #constraint= 704
****************************************
* begin normalizer comments
* category= OPT-SMALLINT
* end normalizer comments
****************************************
min: +1 x97 +2 x98 +1 x99 +1 x100 +1 x101 +2 x102 +2 x103 +1 x104 +1 x105 +1 x106 +2 x107 +1 x108 +1 x109 +2 x110 +1 x111 +1 x112 +1 x113 +2 x114 +2 x115 +1 x116 +1 x117 +1 x118 +2 x119 +1 x120 +1 x121 +2 x122 +1 x123 +1 x124 +1 x125 +2 x126 +2 x127 +1 x128 +1 x129 +1 x130 +2 x131 +1 x132 +1 x133 +2 x134 +1 x135 +1 x136 +1 x137 +2 x138 +2 x139 +1 x140 +1 x141 +1 x142 +2 x143 +1 x144 ;
+1 x2 +1 x18 +1 x34 +1 x50 +1 x66 +1 x82 = 1 ;
+1 x3 +1 x19 +1 x35 +1 x51 +1 x67 +1 x83 = 1 ;
+1 x4 +1 x20 +1 x36 +1 x52 +1 x68 +1 x84 = 1 ;
+1 x5 +1 x21 +1 x37 +1 x53 +1 x69 +1 x85 = 1 ;
+1 x7 +1 x23 +1 x39 +1 x55 +1 x71 +1 x87 = 1 ;
+1 x8 +1 x24 +1 x40 +1 x56 +1 x72 +1 x88 = 1 ;
+1 x9 +1 x25 +1 x41 +1 x57 +1 x73 +1 x89 = 1 ;
+1 x10 +1 x26 +1 x42 +1 x58 +1 x74 +1 x90 = 1 ;
+1 x12 +1 x28 +1 x44 +1 x60 +1 x76 +1 x92 = 1 ;
+1 x13 +1 x29 +1 x45 +1 x61 +1 x77 +1 x93 = 1 ;
+1 x14 +1 x30 +1 x46 +1 x62 +1 x78 +1 x94 = 1 ;
+1 x15 +1 x31 +1 x47 +1 x63 +1 x79 +1 x95 = 1 ;
-1 x2 +1 x6 >= 0 ;
-1 x18 +1 x22 >= 0 ;
-1 x34 +1 x38 >= 0 ;
-1 x50 +1 x54 >= 0 ;
-1 x66 +1 x70 >= 0 ;
-1 x82 +1 x86 >= 0 ;
-1 x3 +1 x11 >= 0 ;
-1 x19 +1 x27 >= 0 ;
-1 x35 +1 x43 >= 0 ;
-1 x51 +1 x59 >= 0 ;
-1 x67 +1 x75 >= 0 ;
-1 x83 +1 x91 >= 0 ;
-1 x4 +1 x16 >= 0 ;
-1 x20 +1 x32 >= 0 ;
-1 x36 +1 x48 >= 0 ;
-1 x52 +1 x64 >= 0 ;
-1 x68 +1 x80 >= 0 ;
-1 x84 +1 x96 >= 0 ;
-1 x5 +1 x1 >= 0 ;
-1 x21 +1 x17 >= 0 ;
-1 x37 +1 x33 >= 0 ;
-1 x53 +1 x49 >= 0 ;
-1 x69 +1 x65 >= 0 ;
-1 x85 +1 x81 >= 0 ;
-1 x7 +1 x11 >= 0 ;
-1 x23 +1 x27 >= 0 ;
-1 x39 +1 x43 >= 0 ;
-1 x55 +1 x59 >= 0 ;
-1 x71 +1 x75 >= 0 ;
-1 x87 +1 x91 >= 0 ;
-1 x8 +1 x16 >= 0 ;
-1 x24 +1 x32 >= 0 ;
-1 x40 +1 x48 >= 0 ;
-1 x56 +1 x64 >= 0 ;
-1 x72 +1 x80 >= 0 ;
-1 x88 +1 x96 >= 0 ;
-1 x9 +1 x1 >= 0 ;
-1 x25 +1 x17 >= 0 ;
-1 x41 +1 x33 >= 0 ;
-1 x57 +1 x49 >= 0 ;
-1 x73 +1 x65 >= 0 ;
-1 x89 +1 x81 >= 0 ;
-1 x10 +1 x6 >= 0 ;
-1 x26 +1 x22 >= 0 ;
-1 x42 +1 x38 >= 0 ;
-1 x58 +1 x54 >= 0 ;
-1 x74 +1 x70 >= 0 ;
-1 x90 +1 x86 >= 0 ;
-1 x12 +1 x16 >= 0 ;
-1 x28 +1 x32 >= 0 ;
-1 x44 +1 x48 >= 0 ;
-1 x60 +1 x64 >= 0 ;
-1 x76 +1 x80 >= 0 ;
-1 x92 +1 x96 >= 0 ;
-1 x13 +1 x1 >= 0 ;
-1 x29 +1 x17 >= 0 ;
-1 x45 +1 x33 >= 0 ;
-1 x61 +1 x49 >= 0 ;
-1 x77 +1 x65 >= 0 ;
-1 x93 +1 x81 >= 0 ;
-1 x14 +1 x6 >= 0 ;
-1 x30 +1 x22 >= 0 ;
-1 x46 +1 x38 >= 0 ;
-1 x62 +1 x54 >= 0 ;
-1 x78 +1 x70 >= 0 ;
-1 x94 +1 x86 >= 0 ;
-1 x15 +1 x11 >= 0 ;
-1 x31 +1 x27 >= 0 ;
-1 x47 +1 x43 >= 0 ;
-1 x63 +1 x59 >= 0 ;
-1 x79 +1 x75 >= 0 ;
-1 x95 +1 x91 >= 0 ;
-1 x5 -1 x9 -1 x13 >= -1 ;
-1 x21 -1 x25 -1 x29 >= -1 ;
-1 x37 -1 x41 -1 x45 >= -1 ;
-1 x53 -1 x57 -1 x61 >= -1 ;
-1 x69 -1 x73 -1 x77 >= -1 ;
-1 x85 -1 x89 -1 x93 >= -1 ;
-1 x2 -1 x10 -1 x14 >= -1 ;
-1 x18 -1 x26 -1 x30 >= -1 ;
-1 x34 -1 x42 -1 x46 >= -1 ;
-1 x50 -1 x58 -1 x62 >= -1 ;
-1 x66 -1 x74 -1 x78 >= -1 ;
-1 x82 -1 x90 -1 x94 >= -1 ;
-1 x3 -1 x7 -1 x15 >= -1 ;
-1 x19 -1 x23 -1 x31 >= -1 ;
-1 x35 -1 x39 -1 x47 >= -1 ;
-1 x51 -1 x55 -1 x63 >= -1 ;
-1 x67 -1 x71 -1 x79 >= -1 ;
-1 x83 -1 x87 -1 x95 >= -1 ;
-1 x4 -1 x8 -1 x12 >= -1 ;
-1 x20 -1 x24 -1 x28 >= -1 ;
-1 x36 -1 x40 -1 x44 >= -1 ;
-1 x52 -1 x56 -1 x60 >= -1 ;
-1 x68 -1 x72 -1 x76 >= -1 ;
-1 x84 -1 x88 -1 x92 >= -1 ;
+1 x1 +1 x2 +1 x3 +1 x4 = 1 ;
+1 x5 +1 x6 +1 x7 +1 x8 = 1 ;
+1 x9 +1 x10 +1 x11 +1 x12 = 1 ;
+1 x13 +1 x14 +1 x15 +1 x16 = 1 ;
+1 x17 +1 x18 +1 x19 +1 x20 = 1 ;
+1 x21 +1 x22 +1 x23 +1 x24 = 1 ;
+1 x25 +1 x26 +1 x27 +1 x28 = 1 ;
+1 x29 +1 x30 +1 x31 +1 x32 = 1 ;
+1 x33 +1 x34 +1 x35 +1 x36 = 1 ;
+1 x37 +1 x38 +1 x39 +1 x40 = 1 ;
+1 x41 +1 x42 +1 x43 +1 x44 = 1 ;
+1 x45 +1 x46 +1 x47 +1 x48 = 1 ;
+1 x49 +1 x50 +1 x51 +1 x52 = 1 ;
+1 x53 +1 x54 +1 x55 +1 x56 = 1 ;
+1 x57 +1 x58 +1 x59 +1 x60 = 1 ;
+1 x61 +1 x62 +1 x63 +1 x64 = 1 ;
+1 x65 +1 x66 +1 x67 +1 x68 = 1 ;
+1 x69 +1 x70 +1 x71 +1 x72 = 1 ;
+1 x73 +1 x74 +1 x75 +1 x76 = 1 ;
+1 x77 +1 x78 +1 x79 +1 x80 = 1 ;
+1 x81 +1 x82 +1 x83 +1 x84 = 1 ;
+1 x85 +1 x86 +1 x87 +1 x88 = 1 ;
+1 x89 +1 x90 +1 x91 +1 x92 = 1 ;
+1 x93 +1 x94 +1 x95 +1 x96 = 1 ;
-1 x49 -1 x33 -1 x17 -1 x1 >= -3 ;
-1 x54 -1 x38 -1 x22 -1 x6 >= -3 ;
-1 x59 -1 x43 -1 x27 -1 x11 >= -3 ;
-1 x64 -1 x48 -1 x32 -1 x16 >= -3 ;
-1 x50 -1 x51 -1 x52 -1 x34 -1 x35 -1 x36 -1 x18 -1 x19 -1 x20 -1 x2 -1 x3 -1 x4 >= -3 ;
-1 x53 -1 x55 -1 x56 -1 x37 -1 x39 -1 x40 -1 x21 -1 x23 -1 x24 -1 x5 -1 x7 -1 x8 >= -3 ;
-1 x57 -1 x58 -1 x60 -1 x41 -1 x42 -1 x44 -1 x25 -1 x26 -1 x28 -1 x9 -1 x10 -1 x12 >= -3 ;
-1 x61 -1 x62 -1 x63 -1 x45 -1 x46 -1 x47 -1 x29 -1 x30 -1 x31 -1 x13 -1 x14 -1 x15 >= -3 ;
-1 x65 -1 x49 -1 x33 -1 x17 >= -3 ;
-1 x70 -1 x54 -1 x38 -1 x22 >= -3 ;
-1 x75 -1 x59 -1 x43 -1 x27 >= -3 ;
-1 x80 -1 x64 -1 x48 -1 x32 >= -3 ;
-1 x66 -1 x67 -1 x68 -1 x50 -1 x51 -1 x52 -1 x34 -1 x35 -1 x36 -1 x18 -1 x19 -1 x20 >= -3 ;
-1 x69 -1 x71 -1 x72 -1 x53 -1 x55 -1 x56 -1 x37 -1 x39 -1 x40 -1 x21 -1 x23 -1 x24 >= -3 ;
-1 x73 -1 x74 -1 x76 -1 x57 -1 x58 -1 x60 -1 x41 -1 x42 -1 x44 -1 x25 -1 x26 -1 x28 >= -3 ;
-1 x77 -1 x78 -1 x79 -1 x61 -1 x62 -1 x63 -1 x45 -1 x46 -1 x47 -1 x29 -1 x30 -1 x31 >= -3 ;
-1 x81 -1 x65 -1 x49 -1 x33 >= -3 ;
-1 x86 -1 x70 -1 x54 -1 x38 >= -3 ;
-1 x91 -1 x75 -1 x59 -1 x43 >= -3 ;
-1 x96 -1 x80 -1 x64 -1 x48 >= -3 ;
-1 x82 -1 x83 -1 x84 -1 x66 -1 x67 -1 x68 -1 x50 -1 x51 -1 x52 -1 x34 -1 x35 -1 x36 >= -3 ;
-1 x85 -1 x87 -1 x88 -1 x69 -1 x71 -1 x72 -1 x53 -1 x55 -1 x56 -1 x37 -1 x39 -1 x40 >= -3 ;
-1 x89 -1 x90 -1 x92 -1 x73 -1 x74 -1 x76 -1 x57 -1 x58 -1 x60 -1 x41 -1 x42 -1 x44 >= -3 ;
-1 x93 -1 x94 -1 x95 -1 x77 -1 x78 -1 x79 -1 x61 -1 x62 -1 x63 -1 x45 -1 x46 -1 x47 >= -3 ;
+1 x97 -1 x1 -1 x18 >= -1 ;
+1 x98 -1 x1 -1 x19 >= -1 ;
+1 x99 -1 x1 -1 x20 >= -1 ;
+1 x100 -1 x2 -1 x17 >= -1 ;
+1 x101 -1 x2 -1 x19 >= -1 ;
+1 x102 -1 x2 -1 x20 >= -1 ;
+1 x103 -1 x3 -1 x17 >= -1 ;
+1 x104 -1 x3 -1 x18 >= -1 ;
+1 x105 -1 x3 -1 x20 >= -1 ;
+1 x106 -1 x4 -1 x17 >= -1 ;
+1 x107 -1 x4 -1 x18 >= -1 ;
+1 x108 -1 x4 -1 x19 >= -1 ;
+1 x109 -1 x5 -1 x22 >= -1 ;
+1 x110 -1 x5 -1 x23 >= -1 ;
+1 x111 -1 x5 -1 x24 >= -1 ;
+1 x112 -1 x6 -1 x21 >= -1 ;
+1 x113 -1 x6 -1 x23 >= -1 ;
+1 x114 -1 x6 -1 x24 >= -1 ;
+1 x115 -1 x7 -1 x21 >= -1 ;
+1 x116 -1 x7 -1 x22 >= -1 ;
+1 x117 -1 x7 -1 x24 >= -1 ;
+1 x118 -1 x8 -1 x21 >= -1 ;
+1 x119 -1 x8 -1 x22 >= -1 ;
+1 x120 -1 x8 -1 x23 >= -1 ;
+1 x121 -1 x9 -1 x26 >= -1 ;
+1 x122 -1 x9 -1 x27 >= -1 ;
+1 x123 -1 x9 -1 x28 >= -1 ;
+1 x124 -1 x10 -1 x25 >= -1 ;
+1 x125 -1 x10 -1 x27 >= -1 ;
+1 x126 -1 x10 -1 x28 >= -1 ;
+1 x127 -1 x11 -1 x25 >= -1 ;
+1 x128 -1 x11 -1 x26 >= -1 ;
+1 x129 -1 x11 -1 x28 >= -1 ;
+1 x130 -1 x12 -1 x25 >= -1 ;
+1 x131 -1 x12 -1 x26 >= -1 ;
+1 x132 -1 x12 -1 x27 >= -1 ;
+1 x133 -1 x13 -1 x30 >= -1 ;
+1 x134 -1 x13 -1 x31 >= -1 ;
+1 x135 -1 x13 -1 x32 >= -1 ;
+1 x136 -1 x14 -1 x29 >= -1 ;
+1 x137 -1 x14 -1 x31 >= -1 ;
+1 x138 -1 x14 -1 x32 >= -1 ;
+1 x139 -1 x15 -1 x29 >= -1 ;
+1 x140 -1 x15 -1 x30 >= -1 ;
+1 x141 -1 x15 -1 x32 >= -1 ;
+1 x142 -1 x16 -1 x29 >= -1 ;
+1 x143 -1 x16 -1 x30 >= -1 ;
+1 x144 -1 x16 -1 x31 >= -1 ;
+1 x97 -1 x17 -1 x34 >= -1 ;
+1 x98 -1 x17 -1 x35 >= -1 ;
+1 x99 -1 x17 -1 x36 >= -1 ;
+1 x100 -1 x18 -1 x33 >= -1 ;
+1 x101 -1 x18 -1 x35 >= -1 ;
+1 x102 -1 x18 -1 x36 >= -1 ;
+1 x103 -1 x19 -1 x33 >= -1 ;
+1 x104 -1 x19 -1 x34 >= -1 ;
+1 x105 -1 x19 -1 x36 >= -1 ;
+1 x106 -1 x20 -1 x33 >= -1 ;
+1 x107 -1 x20 -1 x34 >= -1 ;
+1 x108 -1 x20 -1 x35 >= -1 ;
+1 x109 -1 x21 -1 x38 >= -1 ;
+1 x110 -1 x21 -1 x39 >= -1 ;
+1 x111 -1 x21 -1 x40 >= -1 ;
+1 x112 -1 x22 -1 x37 >= -1 ;
+1 x113 -1 x22 -1 x39 >= -1 ;
+1 x114 -1 x22 -1 x40 >= -1 ;
+1 x115 -1 x23 -1 x37 >= -1 ;
+1 x116 -1 x23 -1 x38 >= -1 ;
+1 x117 -1 x23 -1 x40 >= -1 ;
+1 x118 -1 x24 -1 x37 >= -1 ;
+1 x119 -1 x24 -1 x38 >= -1 ;
+1 x120 -1 x24 -1 x39 >= -1 ;
+1 x121 -1 x25 -1 x42 >= -1 ;
+1 x122 -1 x25 -1 x43 >= -1 ;
+1 x123 -1 x25 -1 x44 >= -1 ;
+1 x124 -1 x26 -1 x41 >= -1 ;
+1 x125 -1 x26 -1 x43 >= -1 ;
+1 x126 -1 x26 -1 x44 >= -1 ;
+1 x127 -1 x27 -1 x41 >= -1 ;
+1 x128 -1 x27 -1 x42 >= -1 ;
+1 x129 -1 x27 -1 x44 >= -1 ;
+1 x130 -1 x28 -1 x41 >= -1 ;
+1 x131 -1 x28 -1 x42 >= -1 ;
+1 x132 -1 x28 -1 x43 >= -1 ;
+1 x133 -1 x29 -1 x46 >= -1 ;
+1 x134 -1 x29 -1 x47 >= -1 ;
+1 x135 -1 x29 -1 x48 >= -1 ;
+1 x136 -1 x30 -1 x45 >= -1 ;
+1 x137 -1 x30 -1 x47 >= -1 ;
+1 x138 -1 x30 -1 x48 >= -1 ;
+1 x139 -1 x31 -1 x45 >= -1 ;
+1 x140 -1 x31 -1 x46 >= -1 ;
+1 x141 -1 x31 -1 x48 >= -1 ;
+1 x142 -1 x32 -1 x45 >= -1 ;
+1 x143 -1 x32 -1 x46 >= -1 ;
+1 x144 -1 x32 -1 x47 >= -1 ;
+1 x97 -1 x33 -1 x50 >= -1 ;
+1 x98 -1 x33 -1 x51 >= -1 ;
+1 x99 -1 x33 -1 x52 >= -1 ;
+1 x100 -1 x34 -1 x49 >= -1 ;
+1 x101 -1 x34 -1 x51 >= -1 ;
+1 x102 -1 x34 -1 x52 >= -1 ;
+1 x103 -1 x35 -1 x49 >= -1 ;
+1 x104 -1 x35 -1 x50 >= -1 ;
+1 x105 -1 x35 -1 x52 >= -1 ;
+1 x106 -1 x36 -1 x49 >= -1 ;
+1 x107 -1 x36 -1 x50 >= -1 ;
+1 x108 -1 x36 -1 x51 >= -1 ;
+1 x109 -1 x37 -1 x54 >= -1 ;
+1 x110 -1 x37 -1 x55 >= -1 ;
+1 x111 -1 x37 -1 x56 >= -1 ;
+1 x112 -1 x38 -1 x53 >= -1 ;
+1 x113 -1 x38 -1 x55 >= -1 ;
+1 x114 -1 x38 -1 x56 >= -1 ;
+1 x115 -1 x39 -1 x53 >= -1 ;
+1 x116 -1 x39 -1 x54 >= -1 ;
+1 x117 -1 x39 -1 x56 >= -1 ;
+1 x118 -1 x40 -1 x53 >= -1 ;
+1 x119 -1 x40 -1 x54 >= -1 ;
+1 x120 -1 x40 -1 x55 >= -1 ;
+1 x121 -1 x41 -1 x58 >= -1 ;
+1 x122 -1 x41 -1 x59 >= -1 ;
+1 x123 -1 x41 -1 x60 >= -1 ;
+1 x124 -1 x42 -1 x57 >= -1 ;
+1 x125 -1 x42 -1 x59 >= -1 ;
+1 x126 -1 x42 -1 x60 >= -1 ;
+1 x127 -1 x43 -1 x57 >= -1 ;
+1 x128 -1 x43 -1 x58 >= -1 ;
+1 x129 -1 x43 -1 x60 >= -1 ;
+1 x130 -1 x44 -1 x57 >= -1 ;
+1 x131 -1 x44 -1 x58 >= -1 ;
+1 x132 -1 x44 -1 x59 >= -1 ;
+1 x133 -1 x45 -1 x62 >= -1 ;
+1 x134 -1 x45 -1 x63 >= -1 ;
+1 x135 -1 x45 -1 x64 >= -1 ;
+1 x136 -1 x46 -1 x61 >= -1 ;
+1 x137 -1 x46 -1 x63 >= -1 ;
+1 x138 -1 x46 -1 x64 >= -1 ;
+1 x139 -1 x47 -1 x61 >= -1 ;
+1 x140 -1 x47 -1 x62 >= -1 ;
+1 x141 -1 x47 -1 x64 >= -1 ;
+1 x142 -1 x48 -1 x61 >= -1 ;
+1 x143 -1 x48 -1 x62 >= -1 ;
+1 x144 -1 x48 -1 x63 >= -1 ;
+1 x97 -1 x49 -1 x66 >= -1 ;
+1 x98 -1 x49 -1 x67 >= -1 ;
+1 x99 -1 x49 -1 x68 >= -1 ;
+1 x100 -1 x50 -1 x65 >= -1 ;
+1 x101 -1 x50 -1 x67 >= -1 ;
+1 x102 -1 x50 -1 x68 >= -1 ;
+1 x103 -1 x51 -1 x65 >= -1 ;
+1 x104 -1 x51 -1 x66 >= -1 ;
+1 x105 -1 x51 -1 x68 >= -1 ;
+1 x106 -1 x52 -1 x65 >= -1 ;
+1 x107 -1 x52 -1 x66 >= -1 ;
+1 x108 -1 x52 -1 x67 >= -1 ;
+1 x109 -1 x53 -1 x70 >= -1 ;
+1 x110 -1 x53 -1 x71 >= -1 ;
+1 x111 -1 x53 -1 x72 >= -1 ;
+1 x112 -1 x54 -1 x69 >= -1 ;
+1 x113 -1 x54 -1 x71 >= -1 ;
+1 x114 -1 x54 -1 x72 >= -1 ;
+1 x115 -1 x55 -1 x69 >= -1 ;
+1 x116 -1 x55 -1 x70 >= -1 ;
+1 x117 -1 x55 -1 x72 >= -1 ;
+1 x118 -1 x56 -1 x69 >= -1 ;
+1 x119 -1 x56 -1 x70 >= -1 ;
+1 x120 -1 x56 -1 x71 >= -1 ;
+1 x121 -1 x57 -1 x74 >= -1 ;
+1 x122 -1 x57 -1 x75 >= -1 ;
+1 x123 -1 x57 -1 x76 >= -1 ;
+1 x124 -1 x58 -1 x73 >= -1 ;
+1 x125 -1 x58 -1 x75 >= -1 ;
+1 x126 -1 x58 -1 x76 >= -1 ;
+1 x127 -1 x59 -1 x73 >= -1 ;
+1 x128 -1 x59 -1 x74 >= -1 ;
+1 x129 -1 x59 -1 x76 >= -1 ;
+1 x130 -1 x60 -1 x73 >= -1 ;
+1 x131 -1 x60 -1 x74 >= -1 ;
+1 x132 -1 x60 -1 x75 >= -1 ;
+1 x133 -1 x61 -1 x78 >= -1 ;
+1 x134 -1 x61 -1 x79 >= -1 ;
+1 x135 -1 x61 -1 x80 >= -1 ;
+1 x136 -1 x62 -1 x77 >= -1 ;
+1 x137 -1 x62 -1 x79 >= -1 ;
+1 x138 -1 x62 -1 x80 >= -1 ;
+1 x139 -1 x63 -1 x77 >= -1 ;
+1 x140 -1 x63 -1 x78 >= -1 ;
+1 x141 -1 x63 -1 x80 >= -1 ;
+1 x142 -1 x64 -1 x77 >= -1 ;
+1 x143 -1 x64 -1 x78 >= -1 ;
+1 x144 -1 x64 -1 x79 >= -1 ;
+1 x97 -1 x65 -1 x82 >= -1 ;
+1 x98 -1 x65 -1 x83 >= -1 ;
+1 x99 -1 x65 -1 x84 >= -1 ;
+1 x100 -1 x66 -1 x81 >= -1 ;
+1 x101 -1 x66 -1 x83 >= -1 ;
+1 x102 -1 x66 -1 x84 >= -1 ;
+1 x103 -1 x67 -1 x81 >= -1 ;
+1 x104 -1 x67 -1 x82 >= -1 ;
+1 x105 -1 x67 -1 x84 >= -1 ;
+1 x106 -1 x68 -1 x81 >= -1 ;
+1 x107 -1 x68 -1 x82 >= -1 ;
+1 x108 -1 x68 -1 x83 >= -1 ;
+1 x109 -1 x69 -1 x86 >= -1 ;
+1 x110 -1 x69 -1 x87 >= -1 ;
+1 x111 -1 x69 -1 x88 >= -1 ;
+1 x112 -1 x70 -1 x85 >= -1 ;
+1 x113 -1 x70 -1 x87 >= -1 ;
+1 x114 -1 x70 -1 x88 >= -1 ;
+1 x115 -1 x71 -1 x85 >= -1 ;
+1 x116 -1 x71 -1 x86 >= -1 ;
+1 x117 -1 x71 -1 x88 >= -1 ;
+1 x118 -1 x72 -1 x85 >= -1 ;
+1 x119 -1 x72 -1 x86 >= -1 ;
+1 x120 -1 x72 -1 x87 >= -1 ;
+1 x121 -1 x73 -1 x90 >= -1 ;
+1 x122 -1 x73 -1 x91 >= -1 ;
+1 x123 -1 x73 -1 x92 >= -1 ;
+1 x124 -1 x74 -1 x89 >= -1 ;
+1 x125 -1 x74 -1 x91 >= -1 ;
+1 x126 -1 x74 -1 x92 >= -1 ;
+1 x127 -1 x75 -1 x89 >= -1 ;
+1 x128 -1 x75 -1 x90 >= -1 ;
+1 x129 -1 x75 -1 x92 >= -1 ;
+1 x130 -1 x76 -1 x89 >= -1 ;
+1 x131 -1 x76 -1 x90 >= -1 ;
+1 x132 -1 x76 -1 x91 >= -1 ;
+1 x133 -1 x77 -1 x94 >= -1 ;
+1 x134 -1 x77 -1 x95 >= -1 ;
+1 x135 -1 x77 -1 x96 >= -1 ;
+1 x136 -1 x78 -1 x93 >= -1 ;
+1 x137 -1 x78 -1 x95 >= -1 ;
+1 x138 -1 x78 -1 x96 >= -1 ;
+1 x139 -1 x79 -1 x93 >= -1 ;
+1 x140 -1 x79 -1 x94 >= -1 ;
+1 x141 -1 x79 -1 x96 >= -1 ;
+1 x142 -1 x80 -1 x93 >= -1 ;
+1 x143 -1 x80 -1 x94 >= -1 ;
+1 x144 -1 x80 -1 x95 >= -1 ;
+1 x97 -1 x2 >= 0 ;
+1 x98 -1 x3 >= 0 ;
+1 x99 -1 x4 >= 0 ;
+1 x112 -1 x5 >= 0 ;
+1 x113 -1 x7 >= 0 ;
+1 x114 -1 x8 >= 0 ;
+1 x127 -1 x9 >= 0 ;
+1 x128 -1 x10 >= 0 ;
+1 x129 -1 x12 >= 0 ;
+1 x142 -1 x13 >= 0 ;
+1 x143 -1 x14 >= 0 ;
+1 x144 -1 x15 >= 0 ;
+1 x100 -1 x82 >= 0 ;
+1 x103 -1 x83 >= 0 ;
+1 x106 -1 x84 >= 0 ;
+1 x109 -1 x85 >= 0 ;
+1 x116 -1 x87 >= 0 ;
+1 x119 -1 x88 >= 0 ;
+1 x122 -1 x89 >= 0 ;
+1 x125 -1 x90 >= 0 ;
+1 x132 -1 x92 >= 0 ;
+1 x135 -1 x93 >= 0 ;
+1 x138 -1 x94 >= 0 ;
+1 x141 -1 x95 >= 0 ;
-1 x2 -1 x21 >= -1 ;
-1 x18 -1 x37 >= -1 ;
-1 x34 -1 x53 >= -1 ;
-1 x50 -1 x69 >= -1 ;
-1 x66 -1 x85 >= -1 ;
-1 x3 -1 x25 >= -1 ;
-1 x19 -1 x41 >= -1 ;
-1 x35 -1 x57 >= -1 ;
-1 x51 -1 x73 >= -1 ;
-1 x67 -1 x89 >= -1 ;
-1 x4 -1 x29 >= -1 ;
-1 x20 -1 x45 >= -1 ;
-1 x36 -1 x61 >= -1 ;
-1 x52 -1 x77 >= -1 ;
-1 x68 -1 x93 >= -1 ;
-1 x5 -1 x18 >= -1 ;
-1 x21 -1 x34 >= -1 ;
-1 x37 -1 x50 >= -1 ;
-1 x53 -1 x66 >= -1 ;
-1 x69 -1 x82 >= -1 ;
-1 x7 -1 x26 >= -1 ;
-1 x23 -1 x42 >= -1 ;
-1 x39 -1 x58 >= -1 ;
-1 x55 -1 x74 >= -1 ;
-1 x71 -1 x90 >= -1 ;
-1 x8 -1 x30 >= -1 ;
-1 x24 -1 x46 >= -1 ;
-1 x40 -1 x62 >= -1 ;
-1 x56 -1 x78 >= -1 ;
-1 x72 -1 x94 >= -1 ;
-1 x9 -1 x19 >= -1 ;
-1 x25 -1 x35 >= -1 ;
-1 x41 -1 x51 >= -1 ;
-1 x57 -1 x67 >= -1 ;
-1 x73 -1 x83 >= -1 ;
-1 x10 -1 x23 >= -1 ;
-1 x26 -1 x39 >= -1 ;
-1 x42 -1 x55 >= -1 ;
-1 x58 -1 x71 >= -1 ;
-1 x74 -1 x87 >= -1 ;
-1 x12 -1 x31 >= -1 ;
-1 x28 -1 x47 >= -1 ;
-1 x44 -1 x63 >= -1 ;
-1 x60 -1 x79 >= -1 ;
-1 x76 -1 x95 >= -1 ;
-1 x13 -1 x20 >= -1 ;
-1 x29 -1 x36 >= -1 ;
-1 x45 -1 x52 >= -1 ;
-1 x61 -1 x68 >= -1 ;
-1 x77 -1 x84 >= -1 ;
-1 x14 -1 x24 >= -1 ;
-1 x30 -1 x40 >= -1 ;
-1 x46 -1 x56 >= -1 ;
-1 x62 -1 x72 >= -1 ;
-1 x78 -1 x88 >= -1 ;
-1 x15 -1 x28 >= -1 ;
-1 x31 -1 x44 >= -1 ;
-1 x47 -1 x60 >= -1 ;
-1 x63 -1 x76 >= -1 ;
-1 x79 -1 x92 >= -1 ;
+1 x97 +1 x104 +1 x107 = 1 ;
+1 x98 +1 x101 +1 x108 = 1 ;
+1 x99 +1 x102 +1 x105 = 1 ;
+1 x112 +1 x115 +1 x118 = 1 ;
+1 x110 +1 x113 +1 x120 = 1 ;
+1 x111 +1 x114 +1 x117 = 1 ;
+1 x124 +1 x127 +1 x130 = 1 ;
+1 x121 +1 x128 +1 x131 = 1 ;
+1 x123 +1 x126 +1 x129 = 1 ;
+1 x136 +1 x139 +1 x142 = 1 ;
+1 x133 +1 x140 +1 x143 = 1 ;
+1 x134 +1 x137 +1 x144 = 1 ;
+1 x100 +1 x101 +1 x102 = 1 ;
+1 x103 +1 x104 +1 x105 = 1 ;
+1 x106 +1 x107 +1 x108 = 1 ;
+1 x109 +1 x110 +1 x111 = 1 ;
+1 x115 +1 x116 +1 x117 = 1 ;
+1 x118 +1 x119 +1 x120 = 1 ;
+1 x121 +1 x122 +1 x123 = 1 ;
+1 x124 +1 x125 +1 x126 = 1 ;
+1 x130 +1 x131 +1 x132 = 1 ;
+1 x133 +1 x134 +1 x135 = 1 ;
+1 x136 +1 x137 +1 x138 = 1 ;
+1 x139 +1 x140 +1 x141 = 1 ;
+1 x100 +1 x103 +1 x106 >= 1 ;
+1 x109 +1 x116 +1 x119 >= 1 ;
+1 x122 +1 x125 +1 x132 >= 1 ;
+1 x135 +1 x138 +1 x141 >= 1 ;
+1 x97 +1 x98 +1 x99 >= 1 ;
+1 x112 +1 x113 +1 x114 >= 1 ;
+1 x127 +1 x128 +1 x129 >= 1 ;
+1 x142 +1 x143 +1 x144 >= 1 ;
-4 x2 -4 x101 -1 x35 -1 x51 -1 x67 -1 x83 >= -8 ;
-4 x2 -4 x104 -1 x35 -1 x51 -1 x67 -1 x83 >= -8 ;
-4 x2 -4 x102 -1 x36 -1 x52 -1 x68 -1 x84 >= -8 ;
-4 x2 -4 x107 -1 x36 -1 x52 -1 x68 -1 x84 >= -8 ;
-3 x18 -3 x101 -1 x51 -1 x67 -1 x83 >= -6 ;
-3 x18 -3 x104 -1 x51 -1 x67 -1 x83 >= -6 ;
-3 x18 -3 x102 -1 x52 -1 x68 -1 x84 >= -6 ;
-3 x18 -3 x107 -1 x52 -1 x68 -1 x84 >= -6 ;
-2 x34 -2 x101 -1 x67 -1 x83 >= -4 ;
-2 x34 -2 x104 -1 x67 -1 x83 >= -4 ;
-2 x34 -2 x102 -1 x68 -1 x84 >= -4 ;
-2 x34 -2 x107 -1 x68 -1 x84 >= -4 ;
-1 x50 -1 x101 -1 x83 >= -2 ;
-1 x50 -1 x104 -1 x83 >= -2 ;
-1 x50 -1 x102 -1 x84 >= -2 ;
-1 x50 -1 x107 -1 x84 >= -2 ;
-4 x3 -4 x104 -1 x34 -1 x50 -1 x66 -1 x82 >= -8 ;
-4 x3 -4 x101 -1 x34 -1 x50 -1 x66 -1 x82 >= -8 ;
-4 x3 -4 x105 -1 x36 -1 x52 -1 x68 -1 x84 >= -8 ;
-4 x3 -4 x108 -1 x36 -1 x52 -1 x68 -1 x84 >= -8 ;
-3 x19 -3 x104 -1 x50 -1 x66 -1 x82 >= -6 ;
-3 x19 -3 x101 -1 x50 -1 x66 -1 x82 >= -6 ;
-3 x19 -3 x105 -1 x52 -1 x68 -1 x84 >= -6 ;
-3 x19 -3 x108 -1 x52 -1 x68 -1 x84 >= -6 ;
-2 x35 -2 x104 -1 x66 -1 x82 >= -4 ;
-2 x35 -2 x101 -1 x66 -1 x82 >= -4 ;
-2 x35 -2 x105 -1 x68 -1 x84 >= -4 ;
-2 x35 -2 x108 -1 x68 -1 x84 >= -4 ;
-1 x51 -1 x104 -1 x82 >= -2 ;
-1 x51 -1 x101 -1 x82 >= -2 ;
-1 x51 -1 x105 -1 x84 >= -2 ;
-1 x51 -1 x108 -1 x84 >= -2 ;
-4 x4 -4 x107 -1 x34 -1 x50 -1 x66 -1 x82 >= -8 ;
-4 x4 -4 x102 -1 x34 -1 x50 -1 x66 -1 x82 >= -8 ;
-4 x4 -4 x108 -1 x35 -1 x51 -1 x67 -1 x83 >= -8 ;
-4 x4 -4 x105 -1 x35 -1 x51 -1 x67 -1 x83 >= -8 ;
-3 x20 -3 x107 -1 x50 -1 x66 -1 x82 >= -6 ;
-3 x20 -3 x102 -1 x50 -1 x66 -1 x82 >= -6 ;
-3 x20 -3 x108 -1 x51 -1 x67 -1 x83 >= -6 ;
-3 x20 -3 x105 -1 x51 -1 x67 -1 x83 >= -6 ;
-2 x36 -2 x107 -1 x66 -1 x82 >= -4 ;
-2 x36 -2 x102 -1 x66 -1 x82 >= -4 ;
-2 x36 -2 x108 -1 x67 -1 x83 >= -4 ;
-2 x36 -2 x105 -1 x67 -1 x83 >= -4 ;
-1 x52 -1 x107 -1 x82 >= -2 ;
-1 x52 -1 x102 -1 x82 >= -2 ;
-1 x52 -1 x108 -1 x83 >= -2 ;
-1 x52 -1 x105 -1 x83 >= -2 ;
-4 x5 -4 x110 -1 x39 -1 x55 -1 x71 -1 x87 >= -8 ;
-4 x5 -4 x115 -1 x39 -1 x55 -1 x71 -1 x87 >= -8 ;
-4 x5 -4 x111 -1 x40 -1 x56 -1 x72 -1 x88 >= -8 ;
-4 x5 -4 x118 -1 x40 -1 x56 -1 x72 -1 x88 >= -8 ;
-3 x21 -3 x110 -1 x55 -1 x71 -1 x87 >= -6 ;
-3 x21 -3 x115 -1 x55 -1 x71 -1 x87 >= -6 ;
-3 x21 -3 x111 -1 x56 -1 x72 -1 x88 >= -6 ;
-3 x21 -3 x118 -1 x56 -1 x72 -1 x88 >= -6 ;
-2 x37 -2 x110 -1 x71 -1 x87 >= -4 ;
-2 x37 -2 x115 -1 x71 -1 x87 >= -4 ;
-2 x37 -2 x111 -1 x72 -1 x88 >= -4 ;
-2 x37 -2 x118 -1 x72 -1 x88 >= -4 ;
-1 x53 -1 x110 -1 x87 >= -2 ;
-1 x53 -1 x115 -1 x87 >= -2 ;
-1 x53 -1 x111 -1 x88 >= -2 ;
-1 x53 -1 x118 -1 x88 >= -2 ;
-4 x7 -4 x115 -1 x37 -1 x53 -1 x69 -1 x85 >= -8 ;
-4 x7 -4 x110 -1 x37 -1 x53 -1 x69 -1 x85 >= -8 ;
-4 x7 -4 x117 -1 x40 -1 x56 -1 x72 -1 x88 >= -8 ;
-4 x7 -4 x120 -1 x40 -1 x56 -1 x72 -1 x88 >= -8 ;
-3 x23 -3 x115 -1 x53 -1 x69 -1 x85 >= -6 ;
-3 x23 -3 x110 -1 x53 -1 x69 -1 x85 >= -6 ;
-3 x23 -3 x117 -1 x56 -1 x72 -1 x88 >= -6 ;
-3 x23 -3 x120 -1 x56 -1 x72 -1 x88 >= -6 ;
-2 x39 -2 x115 -1 x69 -1 x85 >= -4 ;
-2 x39 -2 x110 -1 x69 -1 x85 >= -4 ;
-2 x39 -2 x117 -1 x72 -1 x88 >= -4 ;
-2 x39 -2 x120 -1 x72 -1 x88 >= -4 ;
-1 x55 -1 x115 -1 x85 >= -2 ;
-1 x55 -1 x110 -1 x85 >= -2 ;
-1 x55 -1 x117 -1 x88 >= -2 ;
-1 x55 -1 x120 -1 x88 >= -2 ;
-4 x8 -4 x118 -1 x37 -1 x53 -1 x69 -1 x85 >= -8 ;
-4 x8 -4 x111 -1 x37 -1 x53 -1 x69 -1 x85 >= -8 ;
-4 x8 -4 x120 -1 x39 -1 x55 -1 x71 -1 x87 >= -8 ;
-4 x8 -4 x117 -1 x39 -1 x55 -1 x71 -1 x87 >= -8 ;
-3 x24 -3 x118 -1 x53 -1 x69 -1 x85 >= -6 ;
-3 x24 -3 x111 -1 x53 -1 x69 -1 x85 >= -6 ;
-3 x24 -3 x120 -1 x55 -1 x71 -1 x87 >= -6 ;
-3 x24 -3 x117 -1 x55 -1 x71 -1 x87 >= -6 ;
-2 x40 -2 x118 -1 x69 -1 x85 >= -4 ;
-2 x40 -2 x111 -1 x69 -1 x85 >= -4 ;
-2 x40 -2 x120 -1 x71 -1 x87 >= -4 ;
-2 x40 -2 x117 -1 x71 -1 x87 >= -4 ;
-1 x56 -1 x118 -1 x85 >= -2 ;
-1 x56 -1 x111 -1 x85 >= -2 ;
-1 x56 -1 x120 -1 x87 >= -2 ;
-1 x56 -1 x117 -1 x87 >= -2 ;
-4 x9 -4 x121 -1 x42 -1 x58 -1 x74 -1 x90 >= -8 ;
-4 x9 -4 x124 -1 x42 -1 x58 -1 x74 -1 x90 >= -8 ;
-4 x9 -4 x123 -1 x44 -1 x60 -1 x76 -1 x92 >= -8 ;
-4 x9 -4 x130 -1 x44 -1 x60 -1 x76 -1 x92 >= -8 ;
-3 x25 -3 x121 -1 x58 -1 x74 -1 x90 >= -6 ;
-3 x25 -3 x124 -1 x58 -1 x74 -1 x90 >= -6 ;
-3 x25 -3 x123 -1 x60 -1 x76 -1 x92 >= -6 ;
-3 x25 -3 x130 -1 x60 -1 x76 -1 x92 >= -6 ;
-2 x41 -2 x121 -1 x74 -1 x90 >= -4 ;
-2 x41 -2 x124 -1 x74 -1 x90 >= -4 ;
-2 x41 -2 x123 -1 x76 -1 x92 >= -4 ;
-2 x41 -2 x130 -1 x76 -1 x92 >= -4 ;
-1 x57 -1 x121 -1 x90 >= -2 ;
-1 x57 -1 x124 -1 x90 >= -2 ;
-1 x57 -1 x123 -1 x92 >= -2 ;
-1 x57 -1 x130 -1 x92 >= -2 ;
-4 x10 -4 x124 -1 x41 -1 x57 -1 x73 -1 x89 >= -8 ;
-4 x10 -4 x121 -1 x41 -1 x57 -1 x73 -1 x89 >= -8 ;
-4 x10 -4 x126 -1 x44 -1 x60 -1 x76 -1 x92 >= -8 ;
-4 x10 -4 x131 -1 x44 -1 x60 -1 x76 -1 x92 >= -8 ;
-3 x26 -3 x124 -1 x57 -1 x73 -1 x89 >= -6 ;
-3 x26 -3 x121 -1 x57 -1 x73 -1 x89 >= -6 ;
-3 x26 -3 x126 -1 x60 -1 x76 -1 x92 >= -6 ;
-3 x26 -3 x131 -1 x60 -1 x76 -1 x92 >= -6 ;
-2 x42 -2 x124 -1 x73 -1 x89 >= -4 ;
-2 x42 -2 x121 -1 x73 -1 x89 >= -4 ;
-2 x42 -2 x126 -1 x76 -1 x92 >= -4 ;
-2 x42 -2 x131 -1 x76 -1 x92 >= -4 ;
-1 x58 -1 x124 -1 x89 >= -2 ;
-1 x58 -1 x121 -1 x89 >= -2 ;
-1 x58 -1 x126 -1 x92 >= -2 ;
-1 x58 -1 x131 -1 x92 >= -2 ;
-4 x12 -4 x130 -1 x41 -1 x57 -1 x73 -1 x89 >= -8 ;
-4 x12 -4 x123 -1 x41 -1 x57 -1 x73 -1 x89 >= -8 ;
-4 x12 -4 x131 -1 x42 -1 x58 -1 x74 -1 x90 >= -8 ;
-4 x12 -4 x126 -1 x42 -1 x58 -1 x74 -1 x90 >= -8 ;
-3 x28 -3 x130 -1 x57 -1 x73 -1 x89 >= -6 ;
-3 x28 -3 x123 -1 x57 -1 x73 -1 x89 >= -6 ;
-3 x28 -3 x131 -1 x58 -1 x74 -1 x90 >= -6 ;
-3 x28 -3 x126 -1 x58 -1 x74 -1 x90 >= -6 ;
-2 x44 -2 x130 -1 x73 -1 x89 >= -4 ;
-2 x44 -2 x123 -1 x73 -1 x89 >= -4 ;
-2 x44 -2 x131 -1 x74 -1 x90 >= -4 ;
-2 x44 -2 x126 -1 x74 -1 x90 >= -4 ;
-1 x60 -1 x130 -1 x89 >= -2 ;
-1 x60 -1 x123 -1 x89 >= -2 ;
-1 x60 -1 x131 -1 x90 >= -2 ;
-1 x60 -1 x126 -1 x90 >= -2 ;
-4 x13 -4 x133 -1 x46 -1 x62 -1 x78 -1 x94 >= -8 ;
-4 x13 -4 x136 -1 x46 -1 x62 -1 x78 -1 x94 >= -8 ;
-4 x13 -4 x134 -1 x47 -1 x63 -1 x79 -1 x95 >= -8 ;
-4 x13 -4 x139 -1 x47 -1 x63 -1 x79 -1 x95 >= -8 ;
-3 x29 -3 x133 -1 x62 -1 x78 -1 x94 >= -6 ;
-3 x29 -3 x136 -1 x62 -1 x78 -1 x94 >= -6 ;
-3 x29 -3 x134 -1 x63 -1 x79 -1 x95 >= -6 ;
-3 x29 -3 x139 -1 x63 -1 x79 -1 x95 >= -6 ;
-2 x45 -2 x133 -1 x78 -1 x94 >= -4 ;
-2 x45 -2 x136 -1 x78 -1 x94 >= -4 ;
-2 x45 -2 x134 -1 x79 -1 x95 >= -4 ;
-2 x45 -2 x139 -1 x79 -1 x95 >= -4 ;
-1 x61 -1 x133 -1 x94 >= -2 ;
-1 x61 -1 x136 -1 x94 >= -2 ;
-1 x61 -1 x134 -1 x95 >= -2 ;
-1 x61 -1 x139 -1 x95 >= -2 ;
-4 x14 -4 x136 -1 x45 -1 x61 -1 x77 -1 x93 >= -8 ;
-4 x14 -4 x133 -1 x45 -1 x61 -1 x77 -1 x93 >= -8 ;
-4 x14 -4 x137 -1 x47 -1 x63 -1 x79 -1 x95 >= -8 ;
-4 x14 -4 x140 -1 x47 -1 x63 -1 x79 -1 x95 >= -8 ;
-3 x30 -3 x136 -1 x61 -1 x77 -1 x93 >= -6 ;
-3 x30 -3 x133 -1 x61 -1 x77 -1 x93 >= -6 ;
-3 x30 -3 x137 -1 x63 -1 x79 -1 x95 >= -6 ;
-3 x30 -3 x140 -1 x63 -1 x79 -1 x95 >= -6 ;
-2 x46 -2 x136 -1 x77 -1 x93 >= -4 ;
-2 x46 -2 x133 -1 x77 -1 x93 >= -4 ;
-2 x46 -2 x137 -1 x79 -1 x95 >= -4 ;
-2 x46 -2 x140 -1 x79 -1 x95 >= -4 ;
-1 x62 -1 x136 -1 x93 >= -2 ;
-1 x62 -1 x133 -1 x93 >= -2 ;
-1 x62 -1 x137 -1 x95 >= -2 ;
-1 x62 -1 x140 -1 x95 >= -2 ;
-4 x15 -4 x139 -1 x45 -1 x61 -1 x77 -1 x93 >= -8 ;
-4 x15 -4 x134 -1 x45 -1 x61 -1 x77 -1 x93 >= -8 ;
-4 x15 -4 x140 -1 x46 -1 x62 -1 x78 -1 x94 >= -8 ;
-4 x15 -4 x137 -1 x46 -1 x62 -1 x78 -1 x94 >= -8 ;
-3 x31 -3 x139 -1 x61 -1 x77 -1 x93 >= -6 ;
-3 x31 -3 x134 -1 x61 -1 x77 -1 x93 >= -6 ;
-3 x31 -3 x140 -1 x62 -1 x78 -1 x94 >= -6 ;
-3 x31 -3 x137 -1 x62 -1 x78 -1 x94 >= -6 ;
-2 x47 -2 x139 -1 x77 -1 x93 >= -4 ;
-2 x47 -2 x134 -1 x77 -1 x93 >= -4 ;
-2 x47 -2 x140 -1 x78 -1 x94 >= -4 ;
-2 x47 -2 x137 -1 x78 -1 x94 >= -4 ;
-1 x63 -1 x139 -1 x93 >= -2 ;
-1 x63 -1 x134 -1 x93 >= -2 ;
-1 x63 -1 x140 -1 x94 >= -2 ;
-1 x63 -1 x137 -1 x94 >= -2 ;
